17,1	0,0	8,2	17,5	0,0	0,0	0,0	0,0	0,0	13,8
19,5	10,1	0,0	8,8	11,7	0,0	0,0	19,0	0,0	0,0
0,0	0,0	11,7	0,0	12,4	6,4	0,0	0,0	13,1	0,0
17,7	0,0	13,7	0,0	0,0	0,0	11,1	0,0	0,0	0,0
0,0	18,0	0,0	12,9	16,2	0,0	0,0	8,2	0,0	0,0
0,0	17,4	14,7	0,0	6,5	18,8	0,0	0,0	9,1	0,0
0,0	15,7	0,0	6,7	0,0	0,0	17,9	0,0	0,0	15,4
10,9	0,0	13,8	0,0	0,0	0,0	0,0	0,0	0,0	5,6
0,0	13,7	0,0	6,3	9,1	0,0	0,0	11,6	0,0	0,0
0,0	0,0	10,9	0,0	0,0	6,6	9,3	0,0	0,0	14,6
									
3,1	4,1	3,5	3,1	4,7	3,1	3,5	3,0	3,6	3,2
